nK = 840;
nT = 4;
nI = 7;
L = 29;
TT = 232;
np = 1;
nc = 3;
b = [50, 38, 40, 39, 68, 33, 24];
d = [93, 64, 117, 119, 112, 53, 70];
m = [2.3, 2.1, 1.8, 1.6, 1.8, 1.3, 2.3];
pt = [0.34, 0.26, 0.29, 0.33];
st = [16.66, 13.52, 13.63, 18.48];
arc = {<1, 0, 1, 1, 0, 0, 0, [1, 1, 1, 1]>, <2, 1, 2, 1, 0, 0, 0, [1, 1, 1, 1]>, <3, 2, 3, 1, 0, 0, 0, [1, 1, 1, 1]>, <4, 3, 4, 1, 0, 0, 0, [1, 1, 1, 1]>, <5, 4, 5, 1, 0, 0, 0, [1, 1, 1, 1]>, <6, 5, 6, 1, 0, 0, 0, [1, 1, 1, 1]>, <7, 6, 7, 1, 0, 0, 0, [1, 1, 1, 1]>, <8, 7, 8, 1, 0, 0, 0, [1, 1, 1, 1]>, <9, 8, 9, 1, 0, 0, 0, [1, 1, 1, 1]>, <10, 9, 10, 1, 0, 0, 0, [1, 1, 1, 1]>, <11, 10, 11, 1, 0, 0, 0, [1, 1, 1, 1]>, <12, 11, 12, 1, 0, 0, 0, [1, 1, 1, 1]>, <13, 12, 13, 1, 0, 0, 0, [1, 1, 1, 1]>, <14, 13, 14, 1, 0, 0, 0, [1, 1, 1, 1]>, <15, 14, 15, 1, 0, 0, 0, [1, 1, 1, 1]>, <16, 15, 16, 1, 0, 0, 0, [1, 1, 1, 1]>, <17, 16, 17, 1, 0, 0, 0, [1, 1, 1, 1]>, <18, 17, 18, 1, 0, 0, 0, [1, 1, 1, 1]>, <19, 18, 19, 1, 0, 0, 0, [1, 1, 1, 1]>, <20, 19, 20, 1, 0, 0, 0, [1, 1, 1, 1]>, <21, 20, 21, 1, 0, 0, 0, [1, 1, 1, 1]>, <22, 21, 22, 1, 0, 0, 0, [1, 1, 1, 1]>, <23, 22, 23, 1, 0, 0, 0, [1, 1, 1, 1]>, <24, 23, 24, 1, 0, 0, 0, [1, 1, 1, 1]>, <25, 24, 25, 1, 0, 0, 0, [1, 1, 1, 1]>, <26, 25, 26, 1, 0, 0, 0, [1, 1, 1, 1]>, <27, 26, 27, 1, 0, 0, 0, [1, 1, 1, 1]>, <28, 27, 28, 1, 0, 0, 0, [1, 1, 1, 1]>, <29, 28, 29, 1, 0, 0, 0, [1, 1, 1, 1]>, <30, 0, 13, 13, 1, 0, 1, [1, 1, 0, 1]>, <31, 1, 14, 13, 1, 0, 1, [1, 1, 0, 1]>, <32, 2, 15, 13, 1, 0, 1, [1, 1, 0, 1]>, <33, 3, 16, 13, 1, 0, 1, [1, 1, 0, 1]>, <34, 4, 17, 13, 1, 0, 1, [1, 1, 0, 1]>, <35, 5, 18, 13, 1, 0, 1, [1, 1, 0, 1]>, <36, 7, 20, 13, 1, 0, 1, [1, 1, 0, 1]>, <37, 8, 21, 13, 1, 0, 1, [1, 1, 0, 1]>, <38, 9, 22, 13, 1, 0, 1, [1, 1, 0, 1]>, <39, 10, 23, 13, 1, 0, 1, [1, 1, 0, 1]>, <40, 11, 24, 13, 1, 0, 1, [1, 1, 0, 1]>, <41, 12, 25, 13, 1, 0, 1, [1, 1, 0, 1]>, <42, 13, 26, 13, 1, 0, 1, [1, 1, 0, 1]>, <43, 14, 27, 13, 1, 0, 1, [1, 1, 0, 1]>, <44, 15, 28, 13, 1, 0, 1, [1, 1, 0, 1]>, <45, 16, 29, 13, 1, 0, 1, [1, 1, 0, 1]>, <46, 0, 12, 12, 2, 0, 1, [1, 0, 1, 1]>, <47, 1, 13, 12, 2, 0, 1, [1, 0, 1, 1]>, <48, 2, 14, 12, 2, 0, 1, [1, 0, 1, 1]>, <49, 3, 15, 12, 2, 0, 1, [1, 0, 1, 1]>, <50, 4, 16, 12, 2, 0, 1, [1, 0, 1, 1]>, <51, 5, 17, 12, 2, 0, 1, [1, 0, 1, 1]>, <52, 8, 20, 12, 2, 0, 1, [1, 0, 1, 1]>, <53, 9, 21, 12, 2, 0, 1, [1, 0, 1, 1]>, <54, 10, 22, 12, 2, 0, 1, [1, 0, 1, 1]>, <55, 11, 23, 12, 2, 0, 1, [1, 0, 1, 1]>, <56, 12, 24, 12, 2, 0, 1, [1, 0, 1, 1]>, <57, 13, 25, 12, 2, 0, 1, [1, 0, 1, 1]>, <58, 14, 26, 12, 2, 0, 1, [1, 0, 1, 1]>, <59, 15, 27, 12, 2, 0, 1, [1, 0, 1, 1]>, <60, 16, 28, 12, 2, 0, 1, [1, 0, 1, 1]>, <61, 17, 29, 12, 2, 0, 1, [1, 0, 1, 1]>, <62, 0, 15, 15, 3, 0, 1, [1, 1, 1, 0]>, <63, 1, 16, 15, 3, 0, 1, [1, 1, 1, 0]>, <64, 2, 17, 15, 3, 0, 1, [1, 1, 1, 0]>, <65, 3, 18, 15, 3, 0, 1, [1, 1, 1, 0]>, <66, 4, 19, 15, 3, 0, 1, [1, 1, 1, 0]>, <67, 5, 20, 15, 3, 0, 1, [1, 1, 1, 0]>, <68, 6, 21, 15, 3, 0, 1, [1, 1, 1, 0]>, <69, 7, 22, 15, 3, 0, 1, [1, 1, 1, 0]>, <70, 8, 23, 15, 3, 0, 1, [1, 1, 1, 0]>, <71, 9, 24, 15, 3, 0, 1, [1, 1, 1, 0]>, <72, 10, 25, 15, 3, 0, 1, [1, 1, 1, 0]>, <73, 11, 26, 15, 3, 0, 1, [1, 1, 1, 0]>, <74, 12, 27, 15, 3, 0, 1, [1, 1, 1, 0]>, <75, 13, 28, 15, 3, 0, 1, [1, 1, 1, 0]>, <76, 14, 29, 15, 3, 0, 1, [1, 1, 1, 0]>, <77, 0, 13, 13, 4, 1, 0, [1, 1, 0, 1]>, <78, 1, 14, 13, 4, 1, 0, [1, 1, 0, 1]>, <79, 2, 15, 13, 4, 1, 0, [1, 1, 0, 1]>, <80, 3, 16, 13, 4, 1, 0, [1, 1, 0, 1]>, <81, 4, 17, 13, 4, 1, 0, [1, 1, 0, 1]>, <82, 5, 18, 13, 4, 1, 0, [1, 1, 0, 1]>, <83, 7, 20, 13, 4, 1, 0, [1, 1, 0, 1]>, <84, 8, 21, 13, 4, 1, 0, [1, 1, 0, 1]>, <85, 9, 22, 13, 4, 1, 0, [1, 1, 0, 1]>, <86, 10, 23, 13, 4, 1, 0, [1, 1, 0, 1]>, <87, 11, 24, 13, 4, 1, 0, [1, 1, 0, 1]>, <88, 12, 25, 13, 4, 1, 0, [1, 1, 0, 1]>, <89, 13, 26, 13, 4, 1, 0, [1, 1, 0, 1]>, <90, 14, 27, 13, 4, 1, 0, [1, 1, 0, 1]>, <91, 15, 28, 13, 4, 1, 0, [1, 1, 0, 1]>, <92, 16, 29, 13, 4, 1, 0, [1, 1, 0, 1]>, <93, 0, 12, 12, 5, 0, 0, [0, 1, 1, 1]>, <94, 1, 13, 12, 5, 0, 0, [0, 1, 1, 1]>, <95, 2, 14, 12, 5, 0, 0, [0, 1, 1, 1]>, <96, 3, 15, 12, 5, 0, 0, [0, 1, 1, 1]>, <97, 4, 16, 12, 5, 0, 0, [0, 1, 1, 1]>, <98, 5, 17, 12, 5, 0, 0, [0, 1, 1, 1]>, <99, 8, 20, 12, 5, 0, 0, [0, 1, 1, 1]>, <100, 9, 21, 12, 5, 0, 0, [0, 1, 1, 1]>, <101, 10, 22, 12, 5, 0, 0, [0, 1, 1, 1]>, <102, 11, 23, 12, 5, 0, 0, [0, 1, 1, 1]>, <103, 12, 24, 12, 5, 0, 0, [0, 1, 1, 1]>, <104, 13, 25, 12, 5, 0, 0, [0, 1, 1, 1]>, <105, 14, 26, 12, 5, 0, 0, [0, 1, 1, 1]>, <106, 15, 27, 12, 5, 0, 0, [0, 1, 1, 1]>, <107, 16, 28, 12, 5, 0, 0, [0, 1, 1, 1]>, <108, 17, 29, 12, 5, 0, 0, [0, 1, 1, 1]>, <109, 0, 12, 12, 6, 0, 0, [1, 1, 0, 1]>, <110, 1, 13, 12, 6, 0, 0, [1, 1, 0, 1]>, <111, 2, 14, 12, 6, 0, 0, [1, 1, 0, 1]>, <112, 3, 15, 12, 6, 0, 0, [1, 1, 0, 1]>, <113, 4, 16, 12, 6, 0, 0, [1, 1, 0, 1]>, <114, 5, 17, 12, 6, 0, 0, [1, 1, 0, 1]>, <115, 8, 20, 12, 6, 0, 0, [1, 1, 0, 1]>, <116, 9, 21, 12, 6, 0, 0, [1, 1, 0, 1]>, <117, 10, 22, 12, 6, 0, 0, [1, 1, 0, 1]>, <118, 11, 23, 12, 6, 0, 0, [1, 1, 0, 1]>, <119, 12, 24, 12, 6, 0, 0, [1, 1, 0, 1]>, <120, 13, 25, 12, 6, 0, 0, [1, 1, 0, 1]>, <121, 14, 26, 12, 6, 0, 0, [1, 1, 0, 1]>, <122, 15, 27, 12, 6, 0, 0, [1, 1, 0, 1]>, <123, 16, 28, 12, 6, 0, 0, [1, 1, 0, 1]>, <124, 17, 29, 12, 6, 0, 0, [1, 1, 0, 1]>, <125, 0, 13, 13, 7, 0, 0, [1, 0, 1, 1]>, <126, 1, 14, 13, 7, 0, 0, [1, 0, 1, 1]>, <127, 2, 15, 13, 7, 0, 0, [1, 0, 1, 1]>, <128, 3, 16, 13, 7, 0, 0, [1, 0, 1, 1]>, <129, 4, 17, 13, 7, 0, 0, [1, 0, 1, 1]>, <130, 5, 18, 13, 7, 0, 0, [1, 0, 1, 1]>, <131, 7, 20, 13, 7, 0, 0, [1, 0, 1, 1]>, <132, 8, 21, 13, 7, 0, 0, [1, 0, 1, 1]>, <133, 9, 22, 13, 7, 0, 0, [1, 0, 1, 1]>, <134, 10, 23, 13, 7, 0, 0, [1, 0, 1, 1]>, <135, 11, 24, 13, 7, 0, 0, [1, 0, 1, 1]>, <136, 12, 25, 13, 7, 0, 0, [1, 0, 1, 1]>, <137, 13, 26, 13, 7, 0, 0, [1, 0, 1, 1]>, <138, 14, 27, 13, 7, 0, 0, [1, 0, 1, 1]>, <139, 15, 28, 13, 7, 0, 0, [1, 0, 1, 1]>, <140, 16, 29, 13, 7, 0, 0, [1, 0, 1, 1]>};
